* ENCODING=ISO-8859-1
NAME          CPLEX
ROWS
 N  obj1    
 G  c1      
 G  c2      
 G  c3      
 G  c4      
 G  c5      
 G  c6      
 G  c7      
 G  c8      
 G  c9      
 G  c10     
 G  c11     
 G  c12     
 G  c13     
 G  c14     
 G  c15     
 G  c16     
 G  c17     
 G  c18     
 G  c19     
 G  c20     
 G  c21     
 G  c22     
 G  c23     
 G  c24     
 G  c25     
COLUMNS
    MARK0000  'MARKER'                 'INTORG'
    x1        obj1                            1
    x1        c6                            824
    x1        c12                           633
    x2        obj1                            1
    x2        c16                           275
    x2        c21                           830
    x3        obj1                            1
    x3        c10                           476
    x3        c19                           765
    x3        c20                           486
    x3        c21                           485
    x4        obj1                            1
    x4        c5                            424
    x4        c6                            829
    x4        c8                            468
    x4        c11                           771
    x5        obj1                            1
    x5        c3                            995
    x5        c4                            123
    x5        c14                           666
    x5        c15                           166
    x5        c20                           396
    x5        c22                           272
    x5        c23                           987
    x6        obj1                            1
    x6        c2                            453
    x6        c8                            515
    x7        obj1                            1
    x7        c6                            889
    x8        obj1                            1
    x9        obj1                            1
    x9        c7                            977
    x9        c19                           753
    x9        c20                           698
    x10       obj1                            1
    x10       c7                            115
    x11       obj1                            1
    x11       c10                           319
    x11       c13                           113
    x11       c14                           863
    x12       obj1                            1
    x12       c3                            259
    x12       c8                            373
    x12       c16                           575
    x12       c22                           684
    x12       c25                           629
    x13       obj1                            1
    x13       c7                            875
    x14       obj1                            1
    x14       c14                           106
    x14       c15                           639
    x15       obj1                            1
    x15       c7                            692
    x15       c14                           133
    x15       c18                           917
    x16       obj1                            1
    x16       c4                            436
    x16       c14                           974
    x16       c16                           736
    x17       obj1                            1
    x17       c12                           825
    x17       c21                           537
    x18       obj1                            1
    x18       c24                           784
    x19       obj1                            1
    x19       c8                            626
    x19       c10                           614
    x20       obj1                            1
    x21       obj1                            1
    x21       c11                           368
    x21       c19                           200
    x22       obj1                            1
    x22       c7                            236
    x22       c9                            296
    x22       c17                           904
    x22       c19                           367
    x22       c22                           470
    x23       obj1                            1
    x23       c1                            550
    x23       c2                            849
    x23       c4                            766
    x23       c15                           449
    x23       c21                           114
    x23       c24                           168
    x24       obj1                            1
    x24       c11                           571
    x24       c12                           398
    x24       c17                           555
    x24       c22                           508
    x25       obj1                            1
    x25       c4                            727
    x25       c10                           201
    x25       c13                           432
    x26       obj1                            1
    x26       c2                            902
    x26       c19                           586
    x26       c23                           756
    x27       obj1                            1
    x27       c9                            530
    x27       c10                           247
    x27       c21                           690
    x27       c22                           251
    x27       c25                           997
    x28       obj1                            1
    x28       c3                            597
    x28       c25                           652
    x29       obj1                            1
    x29       c2                            391
    x29       c13                           357
    x29       c23                           280
    x29       c24                           759
    x29       c25                           251
    x30       obj1                            1
    x30       c1                            992
    x30       c3                            866
    x30       c4                            137
    x30       c15                           410
    x31       obj1                            1
    x32       obj1                            1
    x32       c17                           735
    x32       c18                           412
    x32       c24                           709
    x33       obj1                            1
    x33       c1                            217
    x34       obj1                            1
    x34       c1                            426
    x34       c2                            912
    x34       c8                            380
    x35       obj1                            1
    x35       c2                            704
    x35       c3                            519
    x35       c6                            568
    x35       c9                            843
    x35       c12                           710
    x35       c18                           658
    x35       c19                           469
    x36       obj1                            1
    x36       c10                           476
    x36       c20                           580
    x36       c21                           919
    x37       obj1                            1
    x37       c2                            608
    x37       c8                            490
    x37       c22                           529
    x38       obj1                            1
    x38       c6                            875
    x39       obj1                            1
    x39       c1                            862
    x39       c17                           963
    x39       c19                           648
    x40       obj1                            1
    x41       obj1                            1
    x41       c1                            224
    x41       c6                            485
    x41       c7                            267
    x41       c14                           616
    x41       c17                           131
    x42       obj1                            1
    x43       obj1                            1
    x43       c8                            619
    x44       obj1                            1
    x44       c4                            487
    x44       c7                            826
    x44       c24                           952
    x45       obj1                            1
    x45       c15                           721
    x46       obj1                            1
    x46       c16                           758
    x47       obj1                            1
    x47       c5                            211
    x47       c17                           998
    x47       c23                           352
    x47       c25                           502
    x48       obj1                            1
    x49       obj1                            1
    x49       c3                            904
    x50       obj1                            1
    x50       c5                            946
    MARK0001  'MARKER'                 'INTEND'
RHS
    rhs       c1                           1636
    rhs       c2                           2410
    rhs       c3                           2070
    rhs       c4                           1338
    rhs       c5                            791
    rhs       c6                           2235
    rhs       c7                           1994
    rhs       c8                           1736
    rhs       c9                            835
    rhs       c10                          1167
    rhs       c11                           855
    rhs       c12                          1283
    rhs       c13                           451
    rhs       c14                          1679
    rhs       c15                          1193
    rhs       c16                          1172
    rhs       c17                          2143
    rhs       c18                           994
    rhs       c19                          1894
    rhs       c20                          1080
    rhs       c21                          1788
    rhs       c22                          1357
    rhs       c23                          1188
    rhs       c24                          1686
    rhs       c25                          1516
BOUNDS
 LI bnd       x1        0
 LI bnd       x2        0
 LI bnd       x3        0
 LI bnd       x4        0
 LI bnd       x5        0
 LI bnd       x6        0
 LI bnd       x7        0
 LI bnd       x8        0
 LI bnd       x9        0
 LI bnd       x10       0
 LI bnd       x11       0
 LI bnd       x12       0
 LI bnd       x13       0
 LI bnd       x14       0
 LI bnd       x15       0
 LI bnd       x16       0
 LI bnd       x17       0
 LI bnd       x18       0
 LI bnd       x19       0
 LI bnd       x20       0
 LI bnd       x21       0
 LI bnd       x22       0
 LI bnd       x23       0
 LI bnd       x24       0
 LI bnd       x25       0
 LI bnd       x26       0
 LI bnd       x27       0
 LI bnd       x28       0
 LI bnd       x29       0
 LI bnd       x30       0
 LI bnd       x31       0
 LI bnd       x32       0
 LI bnd       x33       0
 LI bnd       x34       0
 LI bnd       x35       0
 LI bnd       x36       0
 LI bnd       x37       0
 LI bnd       x38       0
 LI bnd       x39       0
 LI bnd       x40       0
 LI bnd       x41       0
 LI bnd       x42       0
 LI bnd       x43       0
 LI bnd       x44       0
 LI bnd       x45       0
 LI bnd       x46       0
 LI bnd       x47       0
 LI bnd       x48       0
 LI bnd       x49       0
 LI bnd       x50       0
ENDATA
